p cnf 100 20
d 2 2
d 12 2
d 14 2
d 15 2
d 19 2
d 20 2
d 22 2
d 23 2
d 28 2
d 29 2
d 30 2
d 31 2
d 34 2
d 36 2
d 37 2
d 45 2
d 46 2
d 47 2
d 49 2
d 50 2
d 51 2
d 52 2
d 55 2
d 57 2
d 60 2
d 61 2
d 62 2
d 64 2
d 66 2
d 67 2
d 69 2
d 71 2
d 74 2
d 75 2
d 76 2
d 80 2
d 81 2
d 85 2
d 86 2
d 88 2
d 89 2
d 93 2
d 94 2
d 97 2
47=0 75=1 50=1 
97=1 31=0 15=0 
20=1 57=0 37=0 
14=0 19=1 2=1 
74=0 80=1 45=1 
36=1 62=1 71=1 
30=1 22=0 76=1 
55=0 28=1 34=0 
50=1 57=0 46=0 
67=0 49=0 60=1 
85=0 66=1 29=1 
89=1 45=1 93=1 
34=1 69=1 36=0 
51=1 81=1 12=1 
69=1 45=0 28=1 
14=1 51=0 62=1 
67=1 88=0 64=0 
86=0 80=0 14=0 
61=0 52=1 23=0 
67=0 94=1 61=0 
